SCIP version 5.0.0 [precision: 8 byte] [memory: block] [mode: optimized] [LP solver: NONE] [GitHash: 3bbd232]
Copyright (C) 2002-2017 Konrad-Zuse-Zentrum fuer Informationstechnik Berlin (ZIB)

External codes: 
  Readline EditLine w  GNU library for command line editing (gnu.org/s/readline)
  CppAD 20160000.1     Algorithmic Differentiation of C++ algorithms developed by B. Bell (www.coin-or.org/CppAD)
  ZLIB 1.2.5           General purpose compression library by J. Gailly and M. Adler (zlib.net)
  GMP 6.1.2            GNU Multiple Precision Arithmetic Library developed by T. Granlund (gmplib.org)

user parameter file <scip.set> not found - using default parameters

read problem <../../Split_data/output/spectf/7/1_sample_spectf.logreg>
============

File name	:	../../Split_data/output/spectf/7/1_sample_spectf.logreg
Problem name 	:	1_sample_spectf
Number of data	:	214
Number of var	:	44
The given data has linear independence

[dim=1] time: 0.008645
[dim=2] time: 0.017016
[dim=3] time: 0.024643
[dim=4] time: 0.031966
[dim=5] time: 0.039162
[dim=6] time: 0.045703
[dim=7] time: 0.052202
[dim=8] time: 0.058089
[dim=9] time: 0.063943
[dim=10] time: 0.070234
[dim=11] time: 0.076285
[dim=12] Time of forward = 0.081953sec.
AIC: 129.084
k: 11

[dim=44] time: 0.028745
[dim=43] time: 0.045519
[dim=42] time: 0.060798
[dim=41] time: 0.07365
[dim=40] time: 0.089073
[dim=39] time: 0.105716
[dim=38] time: 0.118719
[dim=37] time: 0.136741
[dim=36] time: 0.15068
[dim=35] time: 0.164187
[dim=34] time: 0.17426
[dim=33] time: 0.187115
[dim=32] time: 0.198074
[dim=31] time: 0.208137
[dim=30] time: 0.219533
[dim=29] time: 0.229234
[dim=28] time: 0.239063
[dim=27] time: 0.248076
[dim=26] time: 0.257586
[dim=25] time: 0.26471
[dim=24] time: 0.271979
[dim=23] time: 0.280071
[dim=22] time: 0.286429
[dim=21] time: 0.291804
[dim=20] time: 0.296985
[dim=19] time: 0.302563
[dim=18] time: 0.307552
[dim=17] time: 0.312935
[dim=16] Time of backward = 0.316986sec.
AIC: 129.504
k: 17
